n_potions = 66;
alchemy = [5, 4, 4, 1, 2, 3, 3, 3, 1, 1, 5, 3, 4, 4, 5, 3, 4, 3, 1, 5, 2, 2, 5, 4, 2, 1, 2, 2, 2, 5, 2, 5, 1, 2, 3, 3, 2, 2, 4, 3, 2, 3, 4, 4, 1, 1, 2, 4, 2, 2, 1, 1, 4, 1, 5, 4, 3, 3, 2, 4, 2, 1, 2, 4, 2, 4];
n_days = 12;
min_potions = 5;
max_potions = 7;
min_alchemists = 5;
max_alchemists = 35;
prereqs = [|7,1
|8,2
|8,6
|11,5
|11,6
|12,7
|14,3
|16,9
|17,10
|17,11
|18,10
|18,11
|19,8
|19,11
|20,9
|23,17
|23,18
|26,13
|26,23
|30,9
|33,27
|34,17
|35,9
|35,17
|35,18
|37,20
|37,30
|37,35
|38,33
|41,9
|43,20
|44,16
|46,37
|47,42
|48,35
|49,30
|50,43
|51,33
|53,47
|54,50
|55,43
|55,38
|56,51
|57,39
|57,34
|61,48
|61,55
|62,31
|63,48
|65,59
|];
